4 100 1942
5 8 9 6 8 7 10 10 9 7
4 3 1 2
7 6 6 2
7 2 3
6
1 1
0 35.0 35.0 0.0 0.0 0 230
2 41.0 49.0 10.0 10.0 130 201 86 0 0 0 0 0 0 0 1 0 0
3 35.0 17.0 10.0 7.0 20 89 79 0 0 0 1 0 0 1 0 1 0
4 55.0 45.0 10.0 13.0 106 135 74 1 1 0 0 0 0 0 0 0 0
5 55.0 20.0 10.0 19.0 71 195 84 0 0 0 0 0 1 0 0 0 0
6 15.0 30.0 10.0 26.0 20 107 27 1 0 1 1 0 0 0 0 0 1
7 25.0 30.0 10.0 3.0 54 153 57 0 0 1 0 1 0 0 1 0 1
8 20.0 50.0 10.0 5.0 66 105 55 0 0 1 0 0 0 0 0 1 0
9 10.0 43.0 10.0 9.0 61 138 96 0 1 0 0 0 0 0 0 0 1
10 55.0 60.0 10.0 16.0 53 150 13 0 0 0 0 0 0 0 0 1 0
11 30.0 60.0 10.0 16.0 101 156 77 0 0 0 0 0 1 0 0 0 0
12 20.0 65.0 10.0 12.0 33 152 60 0 0 0 0 0 0 1 1 0 0
13 50.0 35.0 10.0 19.0 38 97 21 0 0 1 1 0 1 0 0 0 0
14 30.0 25.0 10.0 23.0 70 208 20 0 1 0 0 0 0 0 0 0 1
15 15.0 10.0 10.0 20.0 32 137 94 0 0 0 0 0 1 0 0 0 0
16 30.0 5.0 10.0 8.0 30 154 7 0 0 0 0 0 0 0 0 1 0
17 10.0 20.0 10.0 19.0 54 105 29 0 0 0 0 0 0 0 1 0 0
18 5.0 30.0 10.0 2.0 51 189 61 0 0 0 0 0 1 0 0 0 0
19 20.0 40.0 10.0 12.0 77 106 82 0 0 0 0 1 0 0 0 0 0
20 15.0 60.0 10.0 17.0 53 108 45 0 0 0 0 0 0 0 0 1 0
21 45.0 65.0 10.0 9.0 109 152 62 0 0 0 0 0 0 0 0 0 1
22 45.0 20.0 10.0 11.0 37 96 39 1 0 1 0 0 0 0 0 0 0
23 45.0 10.0 10.0 18.0 59 144 37 0 0 1 0 0 0 1 0 0 0
24 55.0 5.0 10.0 29.0 36 155 16 0 0 0 0 1 0 0 1 0 0
25 65.0 35.0 10.0 3.0 118 190 67 0 0 0 0 0 1 0 0 0 0
26 65.0 20.0 10.0 6.0 47 186 71 0 1 0 1 0 1 0 0 0 0
27 45.0 30.0 10.0 17.0 117 156 74 0 1 0 0 0 0 0 0 0 0
28 35.0 40.0 10.0 16.0 5 156 60 0 0 0 0 0 1 0 0 0 0
29 41.0 37.0 10.0 16.0 8 79 16 0 0 0 0 0 0 0 0 1 0
30 64.0 42.0 10.0 9.0 37 98 17 1 0 0 0 0 0 0 0 0 0
31 40.0 60.0 10.0 21.0 28 123 14 1 0 1 0 0 0 0 0 0 0
32 31.0 52.0 10.0 27.0 24 85 30 0 0 0 0 0 1 0 0 0 0
33 35.0 69.0 10.0 23.0 116 175 91 0 1 0 0 0 0 1 0 1 0
34 53.0 52.0 10.0 11.0 24 179 8 0 0 1 0 0 1 1 0 0 0
35 65.0 55.0 10.0 14.0 100 143 86 0 0 0 0 0 1 0 0 0 0
36 63.0 65.0 10.0 8.0 50 178 90 0 0 0 0 0 0 0 0 1 0
37 2.0 60.0 10.0 5.0 41 178 29 0 0 0 0 0 0 1 1 0 0
38 20.0 20.0 10.0 8.0 117 160 43 0 0 0 0 1 1 0 0 1 0
39 5.0 5.0 10.0 16.0 42 145 9 0 0 0 0 0 0 0 0 1 0
40 60.0 12.0 10.0 31.0 33 186 19 0 0 0 0 0 0 0 0 0 1
41 40.0 25.0 10.0 9.0 51 128 24 0 0 0 0 0 1 0 0 0 0
42 42.0 7.0 10.0 5.0 44 159 3 0 0 0 0 0 0 1 0 0 0
43 24.0 12.0 10.0 5.0 25 172 19 0 0 0 0 0 0 1 1 0 0
44 23.0 3.0 10.0 7.0 115 158 63 1 0 1 0 1 0 1 0 0 0
45 11.0 14.0 10.0 18.0 31 138 83 0 0 1 0 0 0 0 0 0 0
46 6.0 38.0 10.0 16.0 29 189 57 0 0 1 0 0 0 0 0 0 1
47 2.0 48.0 10.0 1.0 93 150 52 0 0 0 0 0 1 0 0 0 0
48 8.0 56.0 10.0 27.0 34 116 85 0 0 0 0 0 1 0 1 0 0
49 13.0 52.0 10.0 36.0 125 192 87 0 0 0 0 0 1 0 1 0 0
50 6.0 68.0 10.0 30.0 93 132 48 0 0 0 0 1 0 1 0 1 0
51 47.0 47.0 10.0 13.0 105 152 68 1 0 0 0 0 0 0 0 0 0
52 49.0 58.0 10.0 10.0 66 119 42 0 1 0 0 0 0 0 0 0 0
53 27.0 43.0 10.0 9.0 25 88 57 0 0 0 0 0 1 0 0 0 0
54 37.0 31.0 10.0 14.0 62 137 92 0 0 0 0 0 1 0 0 0 0
55 57.0 29.0 10.0 18.0 121 168 3 0 0 0 1 0 0 0 0 0 0
56 63.0 23.0 10.0 2.0 70 189 7 0 0 0 0 0 1 0 0 0 0
57 53.0 12.0 10.0 6.0 81 188 71 1 0 0 0 1 0 0 0 1 0
58 32.0 12.0 10.0 7.0 78 133 98 1 0 0 1 0 0 0 1 1 0
59 36.0 26.0 10.0 18.0 79 210 22 0 0 1 0 0 0 0 0 0 0
60 21.0 24.0 10.0 28.0 17 123 72 0 0 0 0 1 1 0 0 0 0
61 17.0 34.0 10.0 3.0 130 201 79 0 1 1 0 0 1 0 0 0 0
62 12.0 24.0 10.0 13.0 59 102 4 0 0 0 0 0 1 0 0 0 0
63 24.0 58.0 10.0 19.0 25 164 26 0 1 0 0 0 0 0 0 1 0
64 27.0 69.0 10.0 10.0 34 112 19 1 0 0 0 0 0 1 0 0 0
65 15.0 77.0 10.0 9.0 46 165 12 1 0 0 0 1 0 0 0 0 1
66 62.0 77.0 10.0 20.0 49 170 21 0 0 0 0 0 1 0 0 0 0
67 49.0 73.0 10.0 25.0 77 179 73 0 0 0 1 1 0 1 0 0 0
68 67.0 5.0 10.0 25.0 43 150 65 0 0 0 0 0 1 1 0 0 0
69 56.0 39.0 10.0 36.0 82 198 95 1 0 0 0 1 0 0 1 1 0
70 37.0 47.0 10.0 6.0 12 142 26 0 0 0 0 0 1 0 0 0 0
71 37.0 56.0 10.0 5.0 21 198 43 0 0 0 0 0 0 0 0 0 1
72 57.0 68.0 10.0 15.0 57 106 82 0 0 0 0 0 1 0 0 1 0
73 47.0 16.0 10.0 25.0 22 110 33 0 0 0 0 0 1 0 0 0 0
74 44.0 17.0 10.0 9.0 60 105 20 0 0 0 0 0 0 0 1 0 0
75 46.0 13.0 10.0 8.0 73 195 33 0 1 1 0 0 0 0 0 1 0
76 49.0 11.0 10.0 18.0 46 101 64 1 1 0 0 0 0 1 0 0 0
77 49.0 42.0 10.0 13.0 36 119 44 0 1 1 0 0 0 0 0 0 1
78 53.0 43.0 10.0 14.0 65 200 99 0 0 0 0 0 1 0 0 0 0
79 61.0 52.0 10.0 3.0 43 158 26 1 0 1 0 0 0 1 0 0 0
80 57.0 48.0 10.0 23.0 58 135 89 1 0 0 0 0 0 1 0 0 0
81 56.0 37.0 10.0 6.0 69 198 23 0 0 0 1 0 0 1 0 1 0
82 55.0 54.0 10.0 26.0 87 110 4 0 1 0 0 0 1 0 0 0 0
83 15.0 47.0 10.0 16.0 28 91 40 0 0 0 0 0 0 0 1 0 0
84 14.0 37.0 10.0 11.0 21 97 23 0 0 1 0 0 0 0 1 0 1
85 11.0 31.0 10.0 7.0 68 143 88 0 0 0 0 0 0 0 0 1 0
86 16.0 22.0 10.0 41.0 74 117 22 0 0 1 1 0 0 0 0 0 0
87 4.0 18.0 10.0 35.0 79 118 90 0 0 0 0 0 0 0 1 1 0
88 28.0 18.0 10.0 26.0 84 111 98 0 0 0 0 0 1 0 0 0 0
89 26.0 52.0 10.0 9.0 24 133 42 1 0 0 0 0 0 1 0 0 0
90 26.0 35.0 10.0 15.0 128 211 79 1 0 0 0 0 0 0 0 0 0
91 31.0 67.0 10.0 3.0 76 123 69 0 0 1 0 1 0 0 0 0 0
92 15.0 19.0 10.0 1.0 130 194 17 0 0 0 0 0 1 0 0 0 0
93 22.0 22.0 10.0 2.0 18 181 24 0 0 0 1 1 0 1 1 0 0
94 18.0 24.0 10.0 22.0 41 199 13 0 0 1 0 0 0 0 1 0 0
95 26.0 27.0 10.0 27.0 88 121 51 0 1 1 0 1 0 1 0 0 0
96 25.0 24.0 10.0 20.0 14 83 53 0 0 0 0 1 0 0 0 1 0
97 22.0 27.0 10.0 11.0 119 160 4 0 1 0 0 1 0 0 1 0 0
98 25.0 21.0 10.0 12.0 122 153 89 0 0 0 0 0 0 0 0 1 0
99 19.0 21.0 10.0 10.0 32 93 52 0 1 1 1 0 0 0 1 0 0
100 20.0 26.0 10.0 9.0 38 137 65 0 1 0 0 0 0 0 0 0 0
101 18.0 18.0 10.0 17.0 28 195 72 0 1 0 0 0 0 0 0 0 1